c FILE /home/rafael/Documents/HappySet/MIHS/inputs/happygen/output/graph_random_k2_p0.4_v100_20241127_083558.txt
c SOURCE This is a random graph formed for the happy graph colouring problem.
c DESCRIPTION It was generated using the problem generator of Rhyd Lewis
c
c GRAPH STATS
c Seed                             = 2020536823
c Number of Nodes                  = 100
c Edge probability defined by user = 0.5
c Number of colours k              = 2
c Number of pre-assignments        = 40
c Actual density                   = 0.508283
c 
c The degrees of nodes 1 to 100, respectively, are as follows 
c [65, 62, 60, 59, 58, 57, 57, 57, 56, 56, 56, 56, 56, 56, 56, 56, 56, 55, 55, 55, 55, 55, 55, 55, 54, 54, 
c  54, 54, 54, 53, 53, 53, 53, 53, 53, 52, 52, 52, 52, 52, 52, 52, 52, 52, 51, 51, 51, 51, 51, 50, 50, 
c  50, 50, 50, 50, 50, 50, 50, 50, 49, 49, 49, 49, 49, 49, 48, 48, 48, 48, 48, 47, 47, 47, 47, 47, 47, 
c  47, 46, 46, 46, 46, 46, 46, 45, 45, 44, 44, 43, 43, 43, 43, 43, 42, 42, 42, 41, 41, 40, 39, 38] 
c  
p edge 100 2516 2
e 1 2
e 1 4
e 1 5
e 1 6
e 1 7
e 1 9
e 1 10
e 1 12
e 1 15
e 1 18
e 1 19
e 1 20
e 1 21
e 1 22
e 1 24
e 1 25
e 1 26
e 1 27
e 1 29
e 1 30
e 1 31
e 1 32
e 1 33
e 1 34
e 1 37
e 1 39
e 1 42
e 1 43
e 1 44
e 1 45
e 1 46
e 1 48
e 1 49
e 1 50
e 1 51
e 1 53
e 1 55
e 1 56
e 1 57
e 1 58
e 1 59
e 1 60
e 1 64
e 1 65
e 1 66
e 1 67
e 1 69
e 1 72
e 1 73
e 1 74
e 1 75
e 1 76
e 1 77
e 1 78
e 1 79
e 1 80
e 1 81
e 1 82
e 1 86
e 1 88
e 1 89
e 1 91
e 1 95
e 1 96
e 1 99
e 2 3
e 2 4
e 2 6
e 2 7
e 2 8
e 2 9
e 2 12
e 2 13
e 2 14
e 2 15
e 2 16
e 2 17
e 2 18
e 2 20
e 2 22
e 2 23
e 2 24
e 2 25
e 2 26
e 2 27
e 2 28
e 2 29
e 2 31
e 2 32
e 2 33
e 2 34
e 2 35
e 2 36
e 2 37
e 2 38
e 2 39
e 2 42
e 2 44
e 2 45
e 2 46
e 2 47
e 2 49
e 2 51
e 2 54
e 2 59
e 2 60
e 2 65
e 2 67
e 2 68
e 2 70
e 2 72
e 2 74
e 2 75
e 2 76
e 2 77
e 2 78
e 2 79
e 2 84
e 2 86
e 2 87
e 2 91
e 2 92
e 2 96
e 2 97
e 2 98
e 2 100
e 3 4
e 3 6
e 3 7
e 3 8
e 3 9
e 3 10
e 3 14
e 3 16
e 3 17
e 3 18
e 3 20
e 3 21
e 3 22
e 3 23
e 3 24
e 3 26
e 3 29
e 3 35
e 3 36
e 3 37
e 3 38
e 3 39
e 3 40
e 3 41
e 3 42
e 3 43
e 3 45
e 3 47
e 3 48
e 3 50
e 3 51
e 3 52
e 3 53
e 3 55
e 3 56
e 3 57
e 3 58
e 3 61
e 3 63
e 3 65
e 3 68
e 3 71
e 3 73
e 3 76
e 3 77
e 3 78
e 3 79
e 3 81
e 3 82
e 3 83
e 3 85
e 3 88
e 3 90
e 3 91
e 3 92
e 3 95
e 3 97
e 3 98
e 3 100
e 4 6
e 4 9
e 4 10
e 4 11
e 4 14
e 4 15
e 4 16
e 4 17
e 4 18
e 4 19
e 4 20
e 4 21
e 4 22
e 4 23
e 4 24
e 4 26
e 4 28
e 4 29
e 4 30
e 4 33
e 4 36
e 4 37
e 4 38
e 4 39
e 4 42
e 4 43
e 4 45
e 4 46
e 4 47
e 4 51
e 4 52
e 4 53
e 4 55
e 4 56
e 4 58
e 4 61
e 4 68
e 4 69
e 4 70
e 4 72
e 4 74
e 4 76
e 4 79
e 4 80
e 4 81
e 4 84
e 4 85
e 4 86
e 4 87
e 4 88
e 4 91
e 4 92
e 4 93
e 4 94
e 4 97
e 4 98
e 5 6
e 5 8
e 5 9
e 5 10
e 5 12
e 5 13
e 5 15
e 5 16
e 5 18
e 5 22
e 5 23
e 5 25
e 5 26
e 5 27
e 5 28
e 5 31
e 5 34
e 5 35
e 5 36
e 5 37
e 5 40
e 5 41
e 5 43
e 5 44
e 5 48
e 5 50
e 5 51
e 5 52
e 5 53
e 5 54
e 5 56
e 5 57
e 5 62
e 5 63
e 5 64
e 5 65
e 5 66
e 5 67
e 5 69
e 5 70
e 5 71
e 5 72
e 5 73
e 5 74
e 5 75
e 5 77
e 5 79
e 5 80
e 5 83
e 5 84
e 5 85
e 5 90
e 5 93
e 5 94
e 5 98
e 5 99
e 5 100
e 6 8
e 6 11
e 6 12
e 6 14
e 6 15
e 6 19
e 6 20
e 6 21
e 6 22
e 6 23
e 6 24
e 6 25
e 6 27
e 6 29
e 6 30
e 6 33
e 6 34
e 6 39
e 6 40
e 6 44
e 6 45
e 6 46
e 6 47
e 6 48
e 6 49
e 6 51
e 6 52
e 6 53
e 6 54
e 6 56
e 6 58
e 6 59
e 6 60
e 6 61
e 6 67
e 6 70
e 6 71
e 6 72
e 6 76
e 6 79
e 6 80
e 6 81
e 6 82
e 6 84
e 6 86
e 6 87
e 6 88
e 6 91
e 6 93
e 6 94
e 6 98
e 6 100
e 7 8
e 7 11
e 7 12
e 7 13
e 7 14
e 7 17
e 7 18
e 7 19
e 7 20
e 7 21
e 7 23
e 7 25
e 7 27
e 7 28
e 7 29
e 7 30
e 7 31
e 7 32
e 7 33
e 7 34
e 7 36
e 7 39
e 7 43
e 7 47
e 7 48
e 7 49
e 7 50
e 7 51
e 7 52
e 7 55
e 7 56
e 7 57
e 7 60
e 7 61
e 7 63
e 7 64
e 7 66
e 7 67
e 7 69
e 7 70
e 7 71
e 7 73
e 7 75
e 7 77
e 7 78
e 7 82
e 7 83
e 7 85
e 7 87
e 7 88
e 7 90
e 7 92
e 7 93
e 7 95
e 8 10
e 8 11
e 8 15
e 8 16
e 8 17
e 8 18
e 8 19
e 8 20
e 8 21
e 8 24
e 8 29
e 8 31
e 8 33
e 8 35
e 8 36
e 8 38
e 8 39
e 8 40
e 8 41
e 8 42
e 8 43
e 8 44
e 8 45
e 8 46
e 8 47
e 8 48
e 8 50
e 8 51
e 8 53
e 8 55
e 8 57
e 8 58
e 8 61
e 8 62
e 8 63
e 8 64
e 8 65
e 8 66
e 8 69
e 8 71
e 8 72
e 8 76
e 8 77
e 8 79
e 8 85
e 8 86
e 8 88
e 8 89
e 8 91
e 8 95
e 8 97
e 8 99
e 9 10
e 9 11
e 9 12
e 9 13
e 9 14
e 9 15
e 9 16
e 9 17
e 9 18
e 9 19
e 9 21
e 9 23
e 9 24
e 9 25
e 9 30
e 9 31
e 9 33
e 9 35
e 9 36
e 9 37
e 9 38
e 9 39
e 9 40
e 9 42
e 9 43
e 9 45
e 9 46
e 9 47
e 9 49
e 9 50
e 9 52
e 9 54
e 9 57
e 9 59
e 9 60
e 9 65
e 9 69
e 9 70
e 9 72
e 9 73
e 9 75
e 9 77
e 9 78
e 9 80
e 9 82
e 9 84
e 9 92
e 9 94
e 9 95
e 9 97
e 9 98
e 10 12
e 10 14
e 10 15
e 10 16
e 10 18
e 10 20
e 10 22
e 10 23
e 10 24
e 10 26
e 10 28
e 10 29
e 10 30
e 10 31
e 10 32
e 10 33
e 10 34
e 10 35
e 10 36
e 10 37
e 10 38
e 10 39
e 10 44
e 10 47
e 10 48
e 10 51
e 10 52
e 10 53
e 10 54
e 10 56
e 10 57
e 10 58
e 10 59
e 10 61
e 10 62
e 10 63
e 10 65
e 10 66
e 10 68
e 10 70
e 10 78
e 10 81
e 10 83
e 10 84
e 10 87
e 10 92
e 10 94
e 10 95
e 10 99
e 10 100
e 11 12
e 11 13
e 11 14
e 11 16
e 11 17
e 11 18
e 11 19
e 11 20
e 11 21
e 11 22
e 11 23
e 11 31
e 11 32
e 11 33
e 11 34
e 11 35
e 11 37
e 11 38
e 11 39
e 11 40
e 11 41
e 11 44
e 11 45
e 11 47
e 11 48
e 11 49
e 11 51
e 11 52
e 11 54
e 11 56
e 11 57
e 11 62
e 11 64
e 11 66
e 11 67
e 11 73
e 11 74
e 11 76
e 11 77
e 11 79
e 11 81
e 11 82
e 11 83
e 11 84
e 11 87
e 11 88
e 11 90
e 11 93
e 11 96
e 11 97
e 11 100
e 12 14
e 12 15
e 12 17
e 12 18
e 12 19
e 12 22
e 12 23
e 12 28
e 12 31
e 12 32
e 12 35
e 12 36
e 12 37
e 12 39
e 12 40
e 12 41
e 12 43
e 12 44
e 12 45
e 12 48
e 12 49
e 12 50
e 12 51
e 12 56
e 12 57
e 12 58
e 12 59
e 12 60
e 12 62
e 12 63
e 12 65
e 12 66
e 12 67
e 12 68
e 12 69
e 12 73
e 12 75
e 12 76
e 12 81
e 12 82
e 12 84
e 12 87
e 12 88
e 12 90
e 12 91
e 12 92
e 12 94
e 12 100
e 13 14
e 13 15
e 13 18
e 13 22
e 13 23
e 13 24
e 13 25
e 13 27
e 13 28
e 13 33
e 13 35
e 13 36
e 13 37
e 13 38
e 13 40
e 13 42
e 13 43
e 13 44
e 13 46
e 13 50
e 13 51
e 13 52
e 13 53
e 13 54
e 13 55
e 13 59
e 13 61
e 13 62
e 13 66
e 13 69
e 13 70
e 13 72
e 13 74
e 13 75
e 13 76
e 13 77
e 13 79
e 13 80
e 13 81
e 13 82
e 13 83
e 13 84
e 13 85
e 13 87
e 13 88
e 13 89
e 13 90
e 13 91
e 13 92
e 13 95
e 13 100
e 14 17
e 14 19
e 14 20
e 14 22
e 14 24
e 14 25
e 14 26
e 14 27
e 14 28
e 14 30
e 14 35
e 14 37
e 14 41
e 14 42
e 14 43
e 14 44
e 14 45
e 14 46
e 14 50
e 14 52
e 14 53
e 14 55
e 14 56
e 14 61
e 14 62
e 14 63
e 14 64
e 14 66
e 14 67
e 14 68
e 14 69
e 14 74
e 14 76
e 14 77
e 14 80
e 14 82
e 14 83
e 14 85
e 14 87
e 14 91
e 14 92
e 14 93
e 14 95
e 14 97
e 14 98
e 14 99
e 15 16
e 15 18
e 15 20
e 15 21
e 15 22
e 15 29
e 15 30
e 15 31
e 15 32
e 15 33
e 15 34
e 15 36
e 15 38
e 15 41
e 15 44
e 15 46
e 15 48
e 15 49
e 15 50
e 15 51
e 15 52
e 15 53
e 15 54
e 15 55
e 15 56
e 15 58
e 15 59
e 15 60
e 15 61
e 15 62
e 15 64
e 15 65
e 15 67
e 15 68
e 15 69
e 15 70
e 15 72
e 15 74
e 15 75
e 15 80
e 15 81
e 15 88
e 15 93
e 15 94
e 15 99
e 15 100
e 16 18
e 16 24
e 16 25
e 16 27
e 16 28
e 16 29
e 16 30
e 16 31
e 16 33
e 16 34
e 16 35
e 16 36
e 16 37
e 16 39
e 16 42
e 16 45
e 16 46
e 16 48
e 16 49
e 16 52
e 16 54
e 16 55
e 16 56
e 16 57
e 16 58
e 16 61
e 16 62
e 16 63
e 16 66
e 16 67
e 16 72
e 16 73
e 16 75
e 16 76
e 16 77
e 16 78
e 16 79
e 16 80
e 16 81
e 16 82
e 16 84
e 16 86
e 16 90
e 16 92
e 16 95
e 16 97
e 16 100
e 17 19
e 17 20
e 17 21
e 17 22
e 17 23
e 17 26
e 17 27
e 17 29
e 17 30
e 17 33
e 17 34
e 17 36
e 17 37
e 17 38
e 17 39
e 17 41
e 17 42
e 17 43
e 17 44
e 17 45
e 17 47
e 17 52
e 17 56
e 17 58
e 17 61
e 17 62
e 17 63
e 17 64
e 17 65
e 17 66
e 17 67
e 17 68
e 17 69
e 17 73
e 17 74
e 17 75
e 17 76
e 17 77
e 17 81
e 17 82
e 17 84
e 17 85
e 17 90
e 17 92
e 17 94
e 17 97
e 17 98
e 18 20
e 18 21
e 18 22
e 18 24
e 18 32
e 18 33
e 18 34
e 18 36
e 18 38
e 18 39
e 18 43
e 18 45
e 18 47
e 18 49
e 18 52
e 18 58
e 18 60
e 18 63
e 18 70
e 18 71
e 18 72
e 18 74
e 18 76
e 18 77
e 18 78
e 18 79
e 18 80
e 18 82
e 18 83
e 18 85
e 18 89
e 18 90
e 18 91
e 18 92
e 18 93
e 18 94
e 18 95
e 18 97
e 18 98
e 18 99
e 18 100
e 19 20
e 19 24
e 19 25
e 19 26
e 19 27
e 19 28
e 19 30
e 19 31
e 19 32
e 19 33
e 19 34
e 19 37
e 19 39
e 19 40
e 19 41
e 19 42
e 19 44
e 19 46
e 19 47
e 19 48
e 19 49
e 19 52
e 19 54
e 19 55
e 19 56
e 19 58
e 19 59
e 19 60
e 19 62
e 19 63
e 19 65
e 19 68
e 19 69
e 19 73
e 19 77
e 19 82
e 19 83
e 19 85
e 19 86
e 19 87
e 19 88
e 19 89
e 19 90
e 19 97
e 19 99
e 20 21
e 20 22
e 20 23
e 20 25
e 20 28
e 20 31
e 20 32
e 20 33
e 20 35
e 20 37
e 20 38
e 20 40
e 20 41
e 20 43
e 20 45
e 20 46
e 20 48
e 20 50
e 20 51
e 20 54
e 20 57
e 20 59
e 20 61
e 20 63
e 20 66
e 20 69
e 20 70
e 20 71
e 20 72
e 20 75
e 20 77
e 20 80
e 20 81
e 20 83
e 20 85
e 20 86
e 20 88
e 20 89
e 20 95
e 20 96
e 20 98
e 21 22
e 21 23
e 21 24
e 21 25
e 21 26
e 21 28
e 21 29
e 21 30
e 21 31
e 21 32
e 21 33
e 21 34
e 21 35
e 21 36
e 21 38
e 21 39
e 21 40
e 21 41
e 21 42
e 21 43
e 21 45
e 21 46
e 21 48
e 21 50
e 21 56
e 21 58
e 21 59
e 21 64
e 21 66
e 21 68
e 21 70
e 21 71
e 21 72
e 21 73
e 21 78
e 21 80
e 21 82
e 21 85
e 21 87
e 21 93
e 21 96
e 21 98
e 21 99
e 22 23
e 22 26
e 22 27
e 22 28
e 22 30
e 22 31
e 22 33
e 22 35
e 22 39
e 22 40
e 22 41
e 22 43
e 22 44
e 22 46
e 22 47
e 22 49
e 22 50
e 22 52
e 22 55
e 22 61
e 22 62
e 22 67
e 22 68
e 22 69
e 22 71
e 22 73
e 22 74
e 22 75
e 22 77
e 22 79
e 22 83
e 22 85
e 22 86
e 22 90
e 22 91
e 22 93
e 22 94
e 22 95
e 22 100
e 23 24
e 23 26
e 23 27
e 23 28
e 23 29
e 23 30
e 23 32
e 23 35
e 23 37
e 23 38
e 23 39
e 23 41
e 23 44
e 23 45
e 23 47
e 23 48
e 23 49
e 23 50
e 23 51
e 23 52
e 23 53
e 23 54
e 23 57
e 23 59
e 23 60
e 23 62
e 23 64
e 23 67
e 23 68
e 23 69
e 23 70
e 23 71
e 23 72
e 23 76
e 23 79
e 23 88
e 23 90
e 23 94
e 23 95
e 23 96
e 24 25
e 24 27
e 24 28
e 24 31
e 24 32
e 24 33
e 24 35
e 24 36
e 24 38
e 24 41
e 24 42
e 24 45
e 24 47
e 24 49
e 24 52
e 24 53
e 24 59
e 24 63
e 24 64
e 24 67
e 24 68
e 24 69
e 24 70
e 24 71
e 24 72
e 24 73
e 24 75
e 24 76
e 24 77
e 24 78
e 24 79
e 24 80
e 24 86
e 24 87
e 24 89
e 24 91
e 24 95
e 24 96
e 24 97
e 24 100
e 25 26
e 25 28
e 25 29
e 25 30
e 25 31
e 25 33
e 25 35
e 25 37
e 25 38
e 25 39
e 25 43
e 25 44
e 25 45
e 25 46
e 25 47
e 25 52
e 25 53
e 25 54
e 25 55
e 25 56
e 25 57
e 25 59
e 25 60
e 25 61
e 25 63
e 25 65
e 25 67
e 25 69
e 25 71
e 25 76
e 25 82
e 25 83
e 25 85
e 25 86
e 25 88
e 25 89
e 25 93
e 25 94
e 25 96
e 25 98
e 25 100
e 26 28
e 26 29
e 26 30
e 26 32
e 26 33
e 26 35
e 26 36
e 26 39
e 26 40
e 26 45
e 26 46
e 26 48
e 26 50
e 26 51
e 26 53
e 26 55
e 26 57
e 26 59
e 26 60
e 26 62
e 26 63
e 26 64
e 26 65
e 26 66
e 26 67
e 26 70
e 26 71
e 26 72
e 26 73
e 26 75
e 26 79
e 26 80
e 26 81
e 26 85
e 26 86
e 26 88
e 26 91
e 26 94
e 26 96
e 26 97
e 26 99
e 27 28
e 27 29
e 27 31
e 27 33
e 27 35
e 27 36
e 27 37
e 27 38
e 27 43
e 27 44
e 27 45
e 27 47
e 27 48
e 27 50
e 27 52
e 27 54
e 27 55
e 27 57
e 27 58
e 27 59
e 27 60
e 27 61
e 27 66
e 27 68
e 27 69
e 27 74
e 27 77
e 27 78
e 27 79
e 27 80
e 27 81
e 27 82
e 27 83
e 27 84
e 27 86
e 27 88
e 27 89
e 27 91
e 27 93
e 27 96
e 27 98
e 28 29
e 28 30
e 28 32
e 28 36
e 28 38
e 28 39
e 28 42
e 28 44
e 28 45
e 28 46
e 28 48
e 28 50
e 28 54
e 28 55
e 28 57
e 28 58
e 28 59
e 28 61
e 28 63
e 28 66
e 28 68
e 28 70
e 28 71
e 28 74
e 28 75
e 28 76
e 28 80
e 28 82
e 28 83
e 28 87
e 28 90
e 28 93
e 28 94
e 28 96
e 28 98
e 28 100
e 29 31
e 29 33
e 29 34
e 29 35
e 29 37
e 29 39
e 29 41
e 29 43
e 29 45
e 29 50
e 29 51
e 29 52
e 29 53
e 29 54
e 29 55
e 29 57
e 29 60
e 29 63
e 29 64
e 29 65
e 29 66
e 29 67
e 29 68
e 29 69
e 29 73
e 29 74
e 29 76
e 29 78
e 29 79
e 29 85
e 29 88
e 29 92
e 29 93
e 29 95
e 29 96
e 29 98
e 29 99
e 30 31
e 30 42
e 30 43
e 30 44
e 30 46
e 30 47
e 30 50
e 30 51
e 30 52
e 30 53
e 30 54
e 30 55
e 30 56
e 30 58
e 30 59
e 30 60
e 30 64
e 30 65
e 30 66
e 30 67
e 30 69
e 30 70
e 30 71
e 30 74
e 30 76
e 30 77
e 30 80
e 30 81
e 30 85
e 30 86
e 30 89
e 30 92
e 30 95
e 30 97
e 30 98
e 30 100
e 31 32
e 31 36
e 31 38
e 31 41
e 31 42
e 31 43
e 31 44
e 31 47
e 31 48
e 31 49
e 31 50
e 31 52
e 31 57
e 31 58
e 31 59
e 31 60
e 31 61
e 31 64
e 31 66
e 31 69
e 31 70
e 31 72
e 31 76
e 31 77
e 31 84
e 31 87
e 31 89
e 31 90
e 31 91
e 31 93
e 31 96
e 31 98
e 31 99
e 32 34
e 32 38
e 32 39
e 32 40
e 32 42
e 32 43
e 32 45
e 32 46
e 32 50
e 32 53
e 32 54
e 32 56
e 32 57
e 32 58
e 32 60
e 32 61
e 32 62
e 32 64
e 32 65
e 32 71
e 32 72
e 32 74
e 32 75
e 32 76
e 32 78
e 32 80
e 32 83
e 32 86
e 32 88
e 32 89
e 32 90
e 32 91
e 32 96
e 32 97
e 32 98
e 32 99
e 32 100
e 33 37
e 33 38
e 33 40
e 33 41
e 33 42
e 33 43
e 33 50
e 33 54
e 33 55
e 33 56
e 33 59
e 33 60
e 33 61
e 33 63
e 33 64
e 33 68
e 33 69
e 33 70
e 33 72
e 33 76
e 33 81
e 33 83
e 33 87
e 33 88
e 33 92
e 33 93
e 33 94
e 33 95
e 33 97
e 33 100
e 34 36
e 34 37
e 34 38
e 34 39
e 34 42
e 34 43
e 34 44
e 34 46
e 34 47
e 34 48
e 34 51
e 34 52
e 34 53
e 34 54
e 34 55
e 34 56
e 34 57
e 34 59
e 34 60
e 34 61
e 34 62
e 34 67
e 34 68
e 34 73
e 34 75
e 34 76
e 34 81
e 34 83
e 34 85
e 34 86
e 34 87
e 34 88
e 34 89
e 34 93
e 34 94
e 34 95
e 34 98
e 34 99
e 35 36
e 35 38
e 35 40
e 35 41
e 35 43
e 35 44
e 35 46
e 35 48
e 35 50
e 35 51
e 35 53
e 35 54
e 35 55
e 35 57
e 35 59
e 35 61
e 35 62
e 35 64
e 35 66
e 35 67
e 35 69
e 35 73
e 35 75
e 35 76
e 35 79
e 35 82
e 35 83
e 35 84
e 35 85
e 35 86
e 35 87
e 35 98
e 35 99
e 36 37
e 36 38
e 36 39
e 36 40
e 36 41
e 36 42
e 36 44
e 36 45
e 36 46
e 36 50
e 36 56
e 36 58
e 36 63
e 36 65
e 36 66
e 36 67
e 36 70
e 36 73
e 36 75
e 36 78
e 36 79
e 36 80
e 36 81
e 36 84
e 36 86
e 36 88
e 36 89
e 36 94
e 36 95
e 36 100
e 37 38
e 37 39
e 37 40
e 37 42
e 37 44
e 37 48
e 37 50
e 37 51
e 37 54
e 37 55
e 37 63
e 37 65
e 37 66
e 37 68
e 37 70
e 37 71
e 37 73
e 37 75
e 37 77
e 37 79
e 37 80
e 37 81
e 37 85
e 37 88
e 37 89
e 37 90
e 37 94
e 37 96
e 37 97
e 37 99
e 38 39
e 38 41
e 38 42
e 38 48
e 38 49
e 38 50
e 38 51
e 38 52
e 38 55
e 38 56
e 38 59
e 38 60
e 38 62
e 38 63
e 38 64
e 38 65
e 38 72
e 38 78
e 38 80
e 38 83
e 38 84
e 38 88
e 38 90
e 38 92
e 38 93
e 38 95
e 38 100
e 39 41
e 39 42
e 39 43
e 39 46
e 39 49
e 39 50
e 39 55
e 39 57
e 39 64
e 39 65
e 39 69
e 39 73
e 39 76
e 39 82
e 39 84
e 39 86
e 39 88
e 39 89
e 39 91
e 39 93
e 39 95
e 39 96
e 39 97
e 39 98
e 39 99
e 40 42
e 40 43
e 40 46
e 40 47
e 40 48
e 40 49
e 40 50
e 40 52
e 40 53
e 40 54
e 40 55
e 40 57
e 40 58
e 40 59
e 40 62
e 40 63
e 40 64
e 40 65
e 40 67
e 40 68
e 40 70
e 40 71
e 40 73
e 40 74
e 40 78
e 40 80
e 40 83
e 40 87
e 40 89
e 40 91
e 40 92
e 40 93
e 40 97
e 40 100
e 41 42
e 41 43
e 41 48
e 41 49
e 41 56
e 41 57
e 41 58
e 41 59
e 41 60
e 41 62
e 41 63
e 41 64
e 41 65
e 41 66
e 41 69
e 41 70
e 41 71
e 41 73
e 41 75
e 41 77
e 41 79
e 41 81
e 41 82
e 41 85
e 41 92
e 41 93
e 41 94
e 41 95
e 41 97
e 41 99
e 41 100
e 42 48
e 42 51
e 42 53
e 42 54
e 42 56
e 42 60
e 42 61
e 42 62
e 42 63
e 42 65
e 42 68
e 42 70
e 42 73
e 42 74
e 42 75
e 42 77
e 42 78
e 42 81
e 42 82
e 42 83
e 42 86
e 42 88
e 42 89
e 42 90
e 42 92
e 42 96
e 42 100
e 43 47
e 43 49
e 43 51
e 43 52
e 43 59
e 43 61
e 43 62
e 43 65
e 43 67
e 43 68
e 43 70
e 43 71
e 43 72
e 43 74
e 43 75
e 43 78
e 43 79
e 43 81
e 43 83
e 43 84
e 43 88
e 43 93
e 43 94
e 43 97
e 43 99
e 44 47
e 44 48
e 44 51
e 44 54
e 44 55
e 44 56
e 44 58
e 44 59
e 44 60
e 44 62
e 44 63
e 44 64
e 44 65
e 44 68
e 44 70
e 44 72
e 44 73
e 44 75
e 44 76
e 44 78
e 44 82
e 44 83
e 44 84
e 44 85
e 44 90
e 44 95
e 44 98
e 44 99
e 45 46
e 45 47
e 45 48
e 45 55
e 45 56
e 45 58
e 45 59
e 45 61
e 45 63
e 45 64
e 45 65
e 45 66
e 45 68
e 45 69
e 45 71
e 45 72
e 45 73
e 45 74
e 45 77
e 45 83
e 45 84
e 45 85
e 45 86
e 45 87
e 45 92
e 45 94
e 45 97
e 46 50
e 46 53
e 46 56
e 46 57
e 46 58
e 46 63
e 46 65
e 46 66
e 46 67
e 46 68
e 46 70
e 46 73
e 46 78
e 46 79
e 46 81
e 46 83
e 46 85
e 46 86
e 46 87
e 46 88
e 46 90
e 46 92
e 46 94
e 46 96
e 46 98
e 46 100
e 47 49
e 47 50
e 47 52
e 47 54
e 47 58
e 47 59
e 47 61
e 47 62
e 47 64
e 47 70
e 47 71
e 47 75
e 47 78
e 47 81
e 47 82
e 47 84
e 47 85
e 47 86
e 47 89
e 47 90
e 47 91
e 47 92
e 47 94
e 47 95
e 47 96
e 47 97
e 47 99
e 48 50
e 48 55
e 48 56
e 48 59
e 48 61
e 48 63
e 48 69
e 48 76
e 48 77
e 48 80
e 48 81
e 48 82
e 48 86
e 48 87
e 48 88
e 48 89
e 48 91
e 48 94
e 48 95
e 48 96
e 48 97
e 48 99
e 48 100
e 49 50
e 49 51
e 49 52
e 49 53
e 49 54
e 49 55
e 49 56
e 49 59
e 49 61
e 49 62
e 49 63
e 49 72
e 49 73
e 49 74
e 49 75
e 49 78
e 49 79
e 49 82
e 49 83
e 49 84
e 49 85
e 49 86
e 49 89
e 49 91
e 49 92
e 49 93
e 49 94
e 49 96
e 49 99
e 49 100
e 50 52
e 50 53
e 50 54
e 50 56
e 50 57
e 50 60
e 50 62
e 50 64
e 50 69
e 50 71
e 50 73
e 50 78
e 50 88
e 50 90
e 50 93
e 50 94
e 50 95
e 50 96
e 51 52
e 51 53
e 51 55
e 51 56
e 51 58
e 51 59
e 51 60
e 51 62
e 51 63
e 51 66
e 51 69
e 51 70
e 51 71
e 51 73
e 51 74
e 51 76
e 51 78
e 51 84
e 51 89
e 51 90
e 51 92
e 51 95
e 51 96
e 51 100
e 52 54
e 52 55
e 52 57
e 52 58
e 52 60
e 52 65
e 52 66
e 52 67
e 52 69
e 52 70
e 52 71
e 52 72
e 52 73
e 52 75
e 52 79
e 52 85
e 52 87
e 52 90
e 52 92
e 53 55
e 53 56
e 53 57
e 53 58
e 53 59
e 53 64
e 53 66
e 53 67
e 53 68
e 53 69
e 53 71
e 53 72
e 53 74
e 53 75
e 53 78
e 53 81
e 53 82
e 53 83
e 53 84
e 53 85
e 53 89
e 53 90
e 53 91
e 53 94
e 53 96
e 54 56
e 54 58
e 54 59
e 54 60
e 54 63
e 54 65
e 54 66
e 54 68
e 54 69
e 54 71
e 54 73
e 54 74
e 54 79
e 54 80
e 54 81
e 54 84
e 54 86
e 54 88
e 54 93
e 54 94
e 54 100
e 55 57
e 55 63
e 55 64
e 55 65
e 55 71
e 55 73
e 55 74
e 55 76
e 55 77
e 55 79
e 55 80
e 55 82
e 55 86
e 55 87
e 55 88
e 55 89
e 55 91
e 55 98
e 55 100
e 56 58
e 56 63
e 56 64
e 56 69
e 56 70
e 56 71
e 56 72
e 56 74
e 56 78
e 56 79
e 56 82
e 56 83
e 56 86
e 56 90
e 56 93
e 56 95
e 56 96
e 57 58
e 57 60
e 57 63
e 57 65
e 57 67
e 57 68
e 57 70
e 57 71
e 57 72
e 57 74
e 57 75
e 57 77
e 57 79
e 57 85
e 57 87
e 57 89
e 57 90
e 57 92
e 57 93
e 57 96
e 57 98
e 58 60
e 58 63
e 58 64
e 58 66
e 58 67
e 58 68
e 58 69
e 58 70
e 58 71
e 58 72
e 58 73
e 58 75
e 58 77
e 58 79
e 58 84
e 58 90
e 58 92
e 58 97
e 58 99
e 59 60
e 59 63
e 59 64
e 59 67
e 59 71
e 59 75
e 59 76
e 59 77
e 59 80
e 59 81
e 59 82
e 59 86
e 59 91
e 59 95
e 59 96
e 59 97
e 60 61
e 60 62
e 60 63
e 60 64
e 60 66
e 60 69
e 60 71
e 60 75
e 60 77
e 60 80
e 60 83
e 60 84
e 60 86
e 60 88
e 60 89
e 60 91
e 60 95
e 60 97
e 60 98
e 61 63
e 61 65
e 61 67
e 61 68
e 61 70
e 61 71
e 61 72
e 61 73
e 61 74
e 61 76
e 61 78
e 61 82
e 61 84
e 61 87
e 61 89
e 61 90
e 61 91
e 61 92
e 61 95
e 61 98
e 61 99
e 62 63
e 62 65
e 62 68
e 62 71
e 62 72
e 62 74
e 62 76
e 62 77
e 62 79
e 62 80
e 62 86
e 62 87
e 62 89
e 62 91
e 62 92
e 62 93
e 62 94
e 62 95
e 62 97
e 62 98
e 62 99
e 63 68
e 63 75
e 63 76
e 63 77
e 63 79
e 63 80
e 63 83
e 63 91
e 63 98
e 63 99
e 64 65
e 64 66
e 64 69
e 64 70
e 64 76
e 64 77
e 64 78
e 64 79
e 64 83
e 64 86
e 64 89
e 64 90
e 64 93
e 64 95
e 64 96
e 64 98
e 64 100
e 65 66
e 65 67
e 65 71
e 65 72
e 65 73
e 65 74
e 65 77
e 65 78
e 65 82
e 65 83
e 65 85
e 65 90
e 65 93
e 65 97
e 65 99
e 66 69
e 66 70
e 66 72
e 66 73
e 66 77
e 66 80
e 66 82
e 66 83
e 66 85
e 66 86
e 66 89
e 66 91
e 66 93
e 66 95
e 66 99
e 67 72
e 67 73
e 67 75
e 67 76
e 67 78
e 67 79
e 67 81
e 67 82
e 67 85
e 67 87
e 67 88
e 67 92
e 67 95
e 67 96
e 67 98
e 67 99
e 67 100
e 68 69
e 68 72
e 68 74
e 68 75
e 68 76
e 68 78
e 68 80
e 68 81
e 68 82
e 68 84
e 68 88
e 68 89
e 68 93
e 68 94
e 68 99
e 68 100
e 69 73
e 69 75
e 69 78
e 69 79
e 69 82
e 69 86
e 69 92
e 69 95
e 69 98
e 69 99
e 70 71
e 70 72
e 70 74
e 70 75
e 70 76
e 70 80
e 70 81
e 70 83
e 70 84
e 70 86
e 70 87
e 70 96
e 71 72
e 71 76
e 71 77
e 71 80
e 71 85
e 71 86
e 71 87
e 71 90
e 71 91
e 71 97
e 72 75
e 72 77
e 72 78
e 72 79
e 72 82
e 72 85
e 72 87
e 72 90
e 72 92
e 72 99
e 73 77
e 73 80
e 73 82
e 73 83
e 73 84
e 73 85
e 73 90
e 73 91
e 73 97
e 74 75
e 74 77
e 74 79
e 74 80
e 74 81
e 74 83
e 74 86
e 74 87
e 74 90
e 74 91
e 74 93
e 74 94
e 74 95
e 74 97
e 74 100
e 75 78
e 75 79
e 75 82
e 75 87
e 75 89
e 75 90
e 75 98
e 75 99
e 76 78
e 76 83
e 76 84
e 76 87
e 76 88
e 76 91
e 76 94
e 76 96
e 76 100
e 77 81
e 77 83
e 77 85
e 77 87
e 77 88
e 77 89
e 77 93
e 77 99
e 78 80
e 78 84
e 78 85
e 78 86
e 78 88
e 78 90
e 78 91
e 78 93
e 78 94
e 78 95
e 78 96
e 79 82
e 79 83
e 79 84
e 79 85
e 79 86
e 79 92
e 79 94
e 79 100
e 80 81
e 80 83
e 80 84
e 80 85
e 80 89
e 80 92
e 80 94
e 80 98
e 80 99
e 80 100
e 81 82
e 81 84
e 81 85
e 81 86
e 81 87
e 81 88
e 81 89
e 81 91
e 81 92
e 81 94
e 81 98
e 81 99
e 82 87
e 82 88
e 82 89
e 82 93
e 82 96
e 82 100
e 83 84
e 83 85
e 83 87
e 83 94
e 83 97
e 83 98
e 84 86
e 84 87
e 84 88
e 84 89
e 84 90
e 84 92
e 84 95
e 84 97
e 85 87
e 85 93
e 85 94
e 85 97
e 86 91
e 86 94
e 86 96
e 87 89
e 87 93
e 87 94
e 87 95
e 87 98
e 88 91
e 88 92
e 88 96
e 89 90
e 89 91
e 89 96
e 89 97
e 89 98
e 90 91
e 90 92
e 90 96
e 90 97
e 91 93
e 91 94
e 91 95
e 91 97
e 92 93
e 92 94
e 92 96
e 92 99
e 92 100
e 93 96
e 93 98
e 95 97
e 96 97
e 96 98
e 97 99
n 3 1
n 6 1
n 8 1
n 10 1
n 16 1
n 19 1
n 20 1
n 23 1
n 24 1
n 25 1
n 26 1
n 31 1
n 33 1
n 35 1
n 36 1
n 38 1
n 39 1
n 41 1
n 44 1
n 46 1
n 47 1
n 48 1
n 52 1
n 58 1
n 63 1
n 64 1
n 66 1
n 67 1
n 69 1
n 71 1
n 72 1
n 73 1
n 74 2
n 76 1
n 82 1
n 84 1
n 88 1
n 89 1
n 98 1
n 99 1
